db/inputs/15413248008047199252547924899126944084.smt2
(set-logic QF_FP)
(declare-const x0 (_ FloatingPoint 11 53))
(declare-const x1 (_ FloatingPoint 11 53))
(declare-const x2 (_ FloatingPoint 11 53))
(declare-const x3 (_ FloatingPoint 11 53))
(declare-const x4 (_ FloatingPoint 11 53))
(declare-const x5 (_ FloatingPoint 11 53))
(declare-const x6 (_ FloatingPoint 11 53))
(assert (fp.eq (fp.sub RNE (fp.div RNE x6 x5) (fp.add RNE x6 x2)) (fp.div RNE (fp.add RNE x6 x2) (fp.mul RNE x1 x3))))
(assert (fp.lt (fp.add RNE (fp.div RNE x1 x0) (fp.add RNE x4 x5)) (fp.div RNE (fp.sub RNE x1 x6) (fp.sub RNE x3 x1))))
(assert (fp.lt (fp.add RNE (fp.div RNE x3 x5) (fp.mul RNE x6 x5)) (fp.div RNE (fp.mul RNE x0 x2) (fp.add RNE x1 x0))))
(assert (fp.geq (fp.add RNE (fp.neg x5) (fp.sub RNE x1 x3)) (fp.sub RNE (fp.sub RNE x5 x3) (fp.neg x6))))
(check-sat)
