db/data/15413248008047199252547924899126944084.z3.out
-------------------
2500.125261876
